510
1   1   138  155  0 42 44 37 17 4 25 24 43 7 23 14 0
1   2   67   107  0 19 40 41 13 18 0
2   1   77   144  0 46 11 32 1 27 48 6 47 12 0
2   2   0    0    0 0
3   1   26   56   0 30 34 9 0
3   2   73   116  0 38 5 15 45 33 39 10 49 0
4   1   31   39   0 29 16 50 21 0
4   2   98   160  0 2 22 8 26 31 28 3 36 35 20 0